; benchmark generated from python API
(set-info :status unknown)
(declare-fun makespan () Int)
(declare-fun 0_y () Int)
(declare-fun 0_x () Int)
(declare-fun ud_1_3 () Bool)
(declare-fun 1_y () Int)
(declare-fun 1_x () Int)
(declare-fun lr_2_1 () Bool)
(declare-fun 2_y () Int)
(declare-fun 2_x () Int)
(declare-fun 3_y () Int)
(declare-fun 3_x () Int)
(declare-fun ud_4_3 () Bool)
(declare-fun 4_y () Int)
(declare-fun 4_x () Int)
(declare-fun 5_y () Int)
(declare-fun 5_x () Int)
(declare-fun ud_6_3 () Bool)
(declare-fun 6_y () Int)
(declare-fun 6_x () Int)
(declare-fun ud_7_3 () Bool)
(declare-fun 7_y () Int)
(declare-fun 7_x () Int)
(declare-fun ud_8_3 () Bool)
(declare-fun 8_y () Int)
(declare-fun 8_x () Int)
(declare-fun ud_9_3 () Bool)
(declare-fun 9_y () Int)
(declare-fun 9_x () Int)
(declare-fun ud_10_3 () Bool)
(declare-fun 10_y () Int)
(declare-fun 10_x () Int)
(declare-fun 11_y () Int)
(declare-fun 11_x () Int)
(declare-fun lr_1_2 () Bool)
(declare-fun ud_1_2 () Bool)
(declare-fun ud_2_1 () Bool)
(declare-fun lr_1_3 () Bool)
(declare-fun lr_3_1 () Bool)
(declare-fun ud_3_1 () Bool)
(declare-fun lr_1_4 () Bool)
(declare-fun ud_1_4 () Bool)
(declare-fun lr_4_1 () Bool)
(declare-fun ud_4_1 () Bool)
(declare-fun lr_1_5 () Bool)
(declare-fun ud_1_5 () Bool)
(declare-fun lr_5_1 () Bool)
(declare-fun ud_5_1 () Bool)
(declare-fun lr_1_6 () Bool)
(declare-fun ud_1_6 () Bool)
(declare-fun lr_6_1 () Bool)
(declare-fun ud_6_1 () Bool)
(declare-fun lr_1_7 () Bool)
(declare-fun ud_1_7 () Bool)
(declare-fun lr_7_1 () Bool)
(declare-fun ud_7_1 () Bool)
(declare-fun lr_1_8 () Bool)
(declare-fun ud_1_8 () Bool)
(declare-fun lr_8_1 () Bool)
(declare-fun ud_8_1 () Bool)
(declare-fun lr_1_9 () Bool)
(declare-fun ud_1_9 () Bool)
(declare-fun lr_9_1 () Bool)
(declare-fun ud_9_1 () Bool)
(declare-fun lr_1_10 () Bool)
(declare-fun ud_1_10 () Bool)
(declare-fun lr_10_1 () Bool)
(declare-fun ud_10_1 () Bool)
(declare-fun lr_1_11 () Bool)
(declare-fun ud_1_11 () Bool)
(declare-fun lr_11_1 () Bool)
(declare-fun ud_11_1 () Bool)
(declare-fun lr_1_12 () Bool)
(declare-fun ud_1_12 () Bool)
(declare-fun lr_12_1 () Bool)
(declare-fun ud_12_1 () Bool)
(declare-fun lr_2_3 () Bool)
(declare-fun ud_2_3 () Bool)
(declare-fun lr_3_2 () Bool)
(declare-fun ud_3_2 () Bool)
(declare-fun lr_2_4 () Bool)
(declare-fun ud_2_4 () Bool)
(declare-fun lr_4_2 () Bool)
(declare-fun ud_4_2 () Bool)
(declare-fun lr_2_5 () Bool)
(declare-fun ud_2_5 () Bool)
(declare-fun lr_5_2 () Bool)
(declare-fun ud_5_2 () Bool)
(declare-fun lr_2_6 () Bool)
(declare-fun ud_2_6 () Bool)
(declare-fun lr_6_2 () Bool)
(declare-fun ud_6_2 () Bool)
(declare-fun lr_2_7 () Bool)
(declare-fun ud_2_7 () Bool)
(declare-fun lr_7_2 () Bool)
(declare-fun ud_7_2 () Bool)
(declare-fun lr_2_8 () Bool)
(declare-fun ud_2_8 () Bool)
(declare-fun lr_8_2 () Bool)
(declare-fun ud_8_2 () Bool)
(declare-fun lr_2_9 () Bool)
(declare-fun ud_2_9 () Bool)
(declare-fun lr_9_2 () Bool)
(declare-fun ud_9_2 () Bool)
(declare-fun lr_2_10 () Bool)
(declare-fun ud_2_10 () Bool)
(declare-fun lr_10_2 () Bool)
(declare-fun ud_10_2 () Bool)
(declare-fun lr_2_11 () Bool)
(declare-fun ud_2_11 () Bool)
(declare-fun lr_11_2 () Bool)
(declare-fun ud_11_2 () Bool)
(declare-fun lr_2_12 () Bool)
(declare-fun ud_2_12 () Bool)
(declare-fun lr_12_2 () Bool)
(declare-fun ud_12_2 () Bool)
(declare-fun lr_3_4 () Bool)
(declare-fun ud_3_4 () Bool)
(declare-fun lr_4_3 () Bool)
(declare-fun lr_3_5 () Bool)
(declare-fun ud_3_5 () Bool)
(declare-fun lr_5_3 () Bool)
(declare-fun ud_5_3 () Bool)
(declare-fun lr_3_6 () Bool)
(declare-fun ud_3_6 () Bool)
(declare-fun lr_6_3 () Bool)
(declare-fun lr_3_7 () Bool)
(declare-fun ud_3_7 () Bool)
(declare-fun lr_7_3 () Bool)
(declare-fun lr_3_8 () Bool)
(declare-fun ud_3_8 () Bool)
(declare-fun lr_8_3 () Bool)
(declare-fun lr_3_9 () Bool)
(declare-fun ud_3_9 () Bool)
(declare-fun lr_9_3 () Bool)
(declare-fun lr_3_10 () Bool)
(declare-fun ud_3_10 () Bool)
(declare-fun lr_10_3 () Bool)
(declare-fun lr_3_11 () Bool)
(declare-fun ud_3_11 () Bool)
(declare-fun lr_11_3 () Bool)
(declare-fun ud_11_3 () Bool)
(declare-fun lr_3_12 () Bool)
(declare-fun ud_3_12 () Bool)
(declare-fun lr_12_3 () Bool)
(declare-fun ud_12_3 () Bool)
(declare-fun lr_4_5 () Bool)
(declare-fun ud_4_5 () Bool)
(declare-fun lr_5_4 () Bool)
(declare-fun ud_5_4 () Bool)
(declare-fun lr_4_6 () Bool)
(declare-fun ud_4_6 () Bool)
(declare-fun lr_6_4 () Bool)
(declare-fun ud_6_4 () Bool)
(declare-fun lr_4_7 () Bool)
(declare-fun ud_4_7 () Bool)
(declare-fun lr_7_4 () Bool)
(declare-fun ud_7_4 () Bool)
(declare-fun lr_4_8 () Bool)
(declare-fun ud_4_8 () Bool)
(declare-fun lr_8_4 () Bool)
(declare-fun ud_8_4 () Bool)
(declare-fun lr_4_9 () Bool)
(declare-fun ud_4_9 () Bool)
(declare-fun lr_9_4 () Bool)
(declare-fun ud_9_4 () Bool)
(declare-fun lr_4_10 () Bool)
(declare-fun ud_4_10 () Bool)
(declare-fun lr_10_4 () Bool)
(declare-fun ud_10_4 () Bool)
(declare-fun lr_4_11 () Bool)
(declare-fun ud_4_11 () Bool)
(declare-fun lr_11_4 () Bool)
(declare-fun ud_11_4 () Bool)
(declare-fun lr_4_12 () Bool)
(declare-fun ud_4_12 () Bool)
(declare-fun lr_12_4 () Bool)
(declare-fun ud_12_4 () Bool)
(declare-fun lr_5_6 () Bool)
(declare-fun ud_5_6 () Bool)
(declare-fun lr_6_5 () Bool)
(declare-fun ud_6_5 () Bool)
(declare-fun lr_5_7 () Bool)
(declare-fun ud_5_7 () Bool)
(declare-fun lr_7_5 () Bool)
(declare-fun ud_7_5 () Bool)
(declare-fun lr_5_8 () Bool)
(declare-fun ud_5_8 () Bool)
(declare-fun lr_8_5 () Bool)
(declare-fun ud_8_5 () Bool)
(declare-fun lr_5_9 () Bool)
(declare-fun ud_5_9 () Bool)
(declare-fun lr_9_5 () Bool)
(declare-fun ud_9_5 () Bool)
(declare-fun lr_5_10 () Bool)
(declare-fun ud_5_10 () Bool)
(declare-fun lr_10_5 () Bool)
(declare-fun ud_10_5 () Bool)
(declare-fun lr_5_11 () Bool)
(declare-fun ud_5_11 () Bool)
(declare-fun lr_11_5 () Bool)
(declare-fun ud_11_5 () Bool)
(declare-fun lr_5_12 () Bool)
(declare-fun ud_5_12 () Bool)
(declare-fun lr_12_5 () Bool)
(declare-fun ud_12_5 () Bool)
(declare-fun lr_6_7 () Bool)
(declare-fun ud_6_7 () Bool)
(declare-fun lr_7_6 () Bool)
(declare-fun ud_7_6 () Bool)
(declare-fun lr_6_8 () Bool)
(declare-fun ud_6_8 () Bool)
(declare-fun lr_8_6 () Bool)
(declare-fun ud_8_6 () Bool)
(declare-fun lr_6_9 () Bool)
(declare-fun ud_6_9 () Bool)
(declare-fun lr_9_6 () Bool)
(declare-fun ud_9_6 () Bool)
(declare-fun lr_6_10 () Bool)
(declare-fun ud_6_10 () Bool)
(declare-fun lr_10_6 () Bool)
(declare-fun ud_10_6 () Bool)
(declare-fun lr_6_11 () Bool)
(declare-fun ud_6_11 () Bool)
(declare-fun lr_11_6 () Bool)
(declare-fun ud_11_6 () Bool)
(declare-fun lr_6_12 () Bool)
(declare-fun ud_6_12 () Bool)
(declare-fun lr_12_6 () Bool)
(declare-fun ud_12_6 () Bool)
(declare-fun lr_7_8 () Bool)
(declare-fun ud_7_8 () Bool)
(declare-fun lr_8_7 () Bool)
(declare-fun ud_8_7 () Bool)
(declare-fun lr_7_9 () Bool)
(declare-fun ud_7_9 () Bool)
(declare-fun lr_9_7 () Bool)
(declare-fun ud_9_7 () Bool)
(declare-fun lr_7_10 () Bool)
(declare-fun ud_7_10 () Bool)
(declare-fun lr_10_7 () Bool)
(declare-fun ud_10_7 () Bool)
(declare-fun lr_7_11 () Bool)
(declare-fun ud_7_11 () Bool)
(declare-fun lr_11_7 () Bool)
(declare-fun ud_11_7 () Bool)
(declare-fun lr_7_12 () Bool)
(declare-fun ud_7_12 () Bool)
(declare-fun lr_12_7 () Bool)
(declare-fun ud_12_7 () Bool)
(declare-fun lr_8_9 () Bool)
(declare-fun ud_8_9 () Bool)
(declare-fun lr_9_8 () Bool)
(declare-fun ud_9_8 () Bool)
(declare-fun lr_8_10 () Bool)
(declare-fun ud_8_10 () Bool)
(declare-fun lr_10_8 () Bool)
(declare-fun ud_10_8 () Bool)
(declare-fun lr_8_11 () Bool)
(declare-fun ud_8_11 () Bool)
(declare-fun lr_11_8 () Bool)
(declare-fun ud_11_8 () Bool)
(declare-fun lr_8_12 () Bool)
(declare-fun ud_8_12 () Bool)
(declare-fun lr_12_8 () Bool)
(declare-fun ud_12_8 () Bool)
(declare-fun lr_9_10 () Bool)
(declare-fun ud_9_10 () Bool)
(declare-fun lr_10_9 () Bool)
(declare-fun ud_10_9 () Bool)
(declare-fun lr_9_11 () Bool)
(declare-fun ud_9_11 () Bool)
(declare-fun lr_11_9 () Bool)
(declare-fun ud_11_9 () Bool)
(declare-fun lr_9_12 () Bool)
(declare-fun ud_9_12 () Bool)
(declare-fun lr_12_9 () Bool)
(declare-fun ud_12_9 () Bool)
(declare-fun lr_10_11 () Bool)
(declare-fun ud_10_11 () Bool)
(declare-fun lr_11_10 () Bool)
(declare-fun ud_11_10 () Bool)
(declare-fun lr_10_12 () Bool)
(declare-fun ud_10_12 () Bool)
(declare-fun lr_12_10 () Bool)
(declare-fun ud_12_10 () Bool)
(declare-fun lr_11_12 () Bool)
(declare-fun ud_11_12 () Bool)
(declare-fun lr_12_11 () Bool)
(declare-fun ud_12_11 () Bool)
(assert
 (>= makespan 17))
(assert
 (<= makespan 22))
(assert
 (let ((?x273 (+ 0_y 6)))
 (<= ?x273 makespan)))
(assert
 (let ((?x257 (+ 0_x 7)))
 (<= ?x257 17)))
(assert
 (>= 0_x 0))
(assert
 (<= 0_y 16))
(assert
 (>= 0_y 0))
(assert
 (<= 0_x 5))
(assert
 (= ud_1_3 false))
(assert
 (let ((?x239 (+ 1_y 3)))
 (<= ?x239 makespan)))
(assert
 (let ((?x235 (+ 1_x 7)))
 (<= ?x235 17)))
(assert
 (>= 1_x 0))
(assert
 (<= 1_y 19))
(assert
 (>= 1_y 0))
(assert
 (= lr_2_1 false))
(assert
 (let ((?x206 (+ 2_y 14)))
 (<= ?x206 makespan)))
(assert
 (let ((?x199 (+ 2_x 4)))
 (<= ?x199 17)))
(assert
 (>= 2_x 0))
(assert
 (<= 2_y 8))
(assert
 (>= 2_y 0))
(assert
 (<= 2_y 4))
(assert
 (let ((?x181 (+ 3_y 8)))
 (<= ?x181 makespan)))
(assert
 (let ((?x177 (+ 3_x 4)))
 (<= ?x177 17)))
(assert
 (>= 3_x 0))
(assert
 (<= 3_y 14))
(assert
 (>= 3_y 0))
(assert
 (= ud_4_3 false))
(assert
 (let ((?x92 (+ 4_y 3)))
 (<= ?x92 makespan)))
(assert
 (let ((?x144 (+ 4_x 4)))
 (<= ?x144 17)))
(assert
 (>= 4_x 0))
(assert
 (<= 4_y 19))
(assert
 (>= 4_y 0))
(assert
 (let ((?x117 (+ 5_y 9)))
 (<= ?x117 makespan)))
(assert
 (let ((?x114 (+ 5_x 3)))
 (<= ?x114 17)))
(assert
 (>= 5_x 0))
(assert
 (<= 5_y 13))
(assert
 (>= 5_y 0))
(assert
 (= ud_6_3 false))
(assert
 (let ((?x87 (+ 6_y 8)))
 (<= ?x87 makespan)))
(assert
 (let ((?x81 (+ 6_x 3)))
 (<= ?x81 17)))
(assert
 (>= 6_x 0))
(assert
 (<= 6_y 14))
(assert
 (>= 6_y 0))
(assert
 (= ud_7_3 false))
(assert
 (let ((?x421 (+ 7_y 7)))
 (<= ?x421 makespan)))
(assert
 (let ((?x423 (+ 7_x 3)))
 (<= ?x423 17)))
(assert
 (>= 7_x 0))
(assert
 (<= 7_y 15))
(assert
 (>= 7_y 0))
(assert
 (= ud_8_3 false))
(assert
 (let ((?x435 (+ 8_y 6)))
 (<= ?x435 makespan)))
(assert
 (let ((?x437 (+ 8_x 3)))
 (<= ?x437 17)))
(assert
 (>= 8_x 0))
(assert
 (<= 8_y 16))
(assert
 (>= 8_y 0))
(assert
 (= ud_9_3 false))
(assert
 (let ((?x448 (+ 9_y 5)))
 (<= ?x448 makespan)))
(assert
 (let ((?x450 (+ 9_x 3)))
 (<= ?x450 17)))
(assert
 (>= 9_x 0))
(assert
 (<= 9_y 17))
(assert
 (>= 9_y 0))
(assert
 (= ud_10_3 false))
(assert
 (let ((?x461 (+ 10_y 4)))
 (<= ?x461 makespan)))
(assert
 (let ((?x463 (+ 10_x 3)))
 (<= ?x463 17)))
(assert
 (>= 10_x 0))
(assert
 (<= 10_y 18))
(assert
 (>= 10_y 0))
(assert
 (let ((?x473 (+ 11_y 3)))
 (<= ?x473 makespan)))
(assert
 (let ((?x475 (+ 11_x 3)))
 (<= ?x475 17)))
(assert
 (>= 11_x 0))
(assert
 (<= 11_y 19))
(assert
 (>= 11_y 0))
(assert
 (= (<= (+ 0_x 7) 1_x) lr_1_2))
(assert
 (= (<= (+ 0_y 6) 1_y) ud_1_2))
(assert
 (= (<= (+ 1_x 7) 0_x) lr_2_1))
(assert
 (= (<= (+ 1_y 3) 0_y) ud_2_1))
(assert
 (or lr_1_2 lr_2_1 ud_1_2 ud_2_1))
(assert
 (let (($x510 (< makespan 9)))
 (=> $x510 (= ud_1_2 false))))
(assert
 (let (($x510 (< makespan 9)))
 (=> $x510 (= ud_2_1 false))))
(assert
 (= (<= (+ 0_x 7) 2_x) lr_1_3))
(assert
 (= (<= (+ 0_y 6) 2_y) ud_1_3))
(assert
 (= (<= (+ 2_x 4) 0_x) lr_3_1))
(assert
 (= (<= (+ 2_y 14) 0_y) ud_3_1))
(assert
 (or lr_1_3 lr_3_1 ud_1_3 ud_3_1))
(assert
 (let (($x242 (= ud_1_3 false)))
 (let (($x547 (< makespan 20)))
 (=> $x547 $x242))))
(assert
 (let (($x547 (< makespan 20)))
 (=> $x547 (= ud_3_1 false))))
(assert
 (= (<= (+ 0_x 7) 3_x) lr_1_4))
(assert
 (= (<= (+ 0_y 6) 3_y) ud_1_4))
(assert
 (= (<= (+ 3_x 4) 0_x) lr_4_1))
(assert
 (= (<= (+ 3_y 8) 0_y) ud_4_1))
(assert
 (or lr_1_4 lr_4_1 ud_1_4 ud_4_1))
(assert
 (let (($x581 (< makespan 14)))
 (=> $x581 (= ud_1_4 false))))
(assert
 (let (($x581 (< makespan 14)))
 (=> $x581 (= ud_4_1 false))))
(assert
 (= (<= (+ 0_x 7) 4_x) lr_1_5))
(assert
 (= (<= (+ 0_y 6) 4_y) ud_1_5))
(assert
 (= (<= (+ 4_x 4) 0_x) lr_5_1))
(assert
 (= (<= (+ 4_y 3) 0_y) ud_5_1))
(assert
 (or lr_1_5 lr_5_1 ud_1_5 ud_5_1))
(assert
 (let (($x510 (< makespan 9)))
 (=> $x510 (= ud_1_5 false))))
(assert
 (let (($x510 (< makespan 9)))
 (=> $x510 (= ud_5_1 false))))
(assert
 (= (<= (+ 0_x 7) 5_x) lr_1_6))
(assert
 (= (<= (+ 0_y 6) 5_y) ud_1_6))
(assert
 (= (<= (+ 5_x 3) 0_x) lr_6_1))
(assert
 (= (<= (+ 5_y 9) 0_y) ud_6_1))
(assert
 (or lr_1_6 lr_6_1 ud_1_6 ud_6_1))
(assert
 (let (($x646 (< makespan 15)))
 (=> $x646 (= ud_1_6 false))))
(assert
 (let (($x646 (< makespan 15)))
 (=> $x646 (= ud_6_1 false))))
(assert
 (= (<= (+ 0_x 7) 6_x) lr_1_7))
(assert
 (= (<= (+ 0_y 6) 6_y) ud_1_7))
(assert
 (= (<= (+ 6_x 3) 0_x) lr_7_1))
(assert
 (= (<= (+ 6_y 8) 0_y) ud_7_1))
(assert
 (or lr_1_7 lr_7_1 ud_1_7 ud_7_1))
(assert
 (let (($x581 (< makespan 14)))
 (=> $x581 (= ud_1_7 false))))
(assert
 (let (($x581 (< makespan 14)))
 (=> $x581 (= ud_7_1 false))))
(assert
 (= (<= (+ 0_x 7) 7_x) lr_1_8))
(assert
 (= (<= (+ 0_y 6) 7_y) ud_1_8))
(assert
 (= (<= (+ 7_x 3) 0_x) lr_8_1))
(assert
 (= (<= (+ 7_y 7) 0_y) ud_8_1))
(assert
 (or lr_1_8 lr_8_1 ud_1_8 ud_8_1))
(assert
 (let (($x711 (< makespan 13)))
 (=> $x711 (= ud_1_8 false))))
(assert
 (let (($x711 (< makespan 13)))
 (=> $x711 (= ud_8_1 false))))
(assert
 (= (<= (+ 0_x 7) 8_x) lr_1_9))
(assert
 (= (<= (+ 0_y 6) 8_y) ud_1_9))
(assert
 (= (<= (+ 8_x 3) 0_x) lr_9_1))
(assert
 (= (<= (+ 8_y 6) 0_y) ud_9_1))
(assert
 (or lr_1_9 lr_9_1 ud_1_9 ud_9_1))
(assert
 (let (($x747 (< makespan 12)))
 (=> $x747 (= ud_1_9 false))))
(assert
 (let (($x747 (< makespan 12)))
 (=> $x747 (= ud_9_1 false))))
(assert
 (= (<= (+ 0_x 7) 9_x) lr_1_10))
(assert
 (= (<= (+ 0_y 6) 9_y) ud_1_10))
(assert
 (= (<= (+ 9_x 3) 0_x) lr_10_1))
(assert
 (= (<= (+ 9_y 5) 0_y) ud_10_1))
(assert
 (or lr_1_10 lr_10_1 ud_1_10 ud_10_1))
(assert
 (let (($x784 (< makespan 11)))
 (=> $x784 (= ud_1_10 false))))
(assert
 (let (($x784 (< makespan 11)))
 (=> $x784 (= ud_10_1 false))))
(assert
 (= (<= (+ 0_x 7) 10_x) lr_1_11))
(assert
 (= (<= (+ 0_y 6) 10_y) ud_1_11))
(assert
 (= (<= (+ 10_x 3) 0_x) lr_11_1))
(assert
 (= (<= (+ 10_y 4) 0_y) ud_11_1))
(assert
 (or lr_1_11 lr_11_1 ud_1_11 ud_11_1))
(assert
 (let (($x820 (< makespan 10)))
 (=> $x820 (= ud_1_11 false))))
(assert
 (let (($x820 (< makespan 10)))
 (=> $x820 (= ud_11_1 false))))
(assert
 (= (<= (+ 0_x 7) 11_x) lr_1_12))
(assert
 (= (<= (+ 0_y 6) 11_y) ud_1_12))
(assert
 (= (<= (+ 11_x 3) 0_x) lr_12_1))
(assert
 (= (<= (+ 11_y 3) 0_y) ud_12_1))
(assert
 (or lr_1_12 lr_12_1 ud_1_12 ud_12_1))
(assert
 (let (($x510 (< makespan 9)))
 (=> $x510 (= ud_1_12 false))))
(assert
 (let (($x510 (< makespan 9)))
 (=> $x510 (= ud_12_1 false))))
(assert
 (= (<= (+ 1_x 7) 2_x) lr_2_3))
(assert
 (= (<= (+ 1_y 3) 2_y) ud_2_3))
(assert
 (= (<= (+ 2_x 4) 1_x) lr_3_2))
(assert
 (= (<= (+ 2_y 14) 1_y) ud_3_2))
(assert
 (or lr_2_3 lr_3_2 ud_2_3 ud_3_2))
(assert
 (let (($x883 (< makespan 17)))
 (=> $x883 (= ud_2_3 false))))
(assert
 (let (($x883 (< makespan 17)))
 (=> $x883 (= ud_3_2 false))))
(assert
 (= (<= (+ 1_x 7) 3_x) lr_2_4))
(assert
 (= (<= (+ 1_y 3) 3_y) ud_2_4))
(assert
 (= (<= (+ 3_x 4) 1_x) lr_4_2))
(assert
 (= (<= (+ 3_y 8) 1_y) ud_4_2))
(assert
 (or lr_2_4 lr_4_2 ud_2_4 ud_4_2))
(assert
 (let (($x784 (< makespan 11)))
 (=> $x784 (= ud_2_4 false))))
(assert
 (let (($x784 (< makespan 11)))
 (=> $x784 (= ud_4_2 false))))
(assert
 (= (<= (+ 1_x 7) 4_x) lr_2_5))
(assert
 (= (<= (+ 1_y 3) 4_y) ud_2_5))
(assert
 (= (<= (+ 4_x 4) 1_x) lr_5_2))
(assert
 (= (<= (+ 4_y 3) 1_y) ud_5_2))
(assert
 (or lr_2_5 lr_5_2 ud_2_5 ud_5_2))
(assert
 (let (($x941 (< makespan 6)))
 (=> $x941 (= ud_2_5 false))))
(assert
 (let (($x941 (< makespan 6)))
 (=> $x941 (= ud_5_2 false))))
(assert
 (= (<= (+ 1_x 7) 5_x) lr_2_6))
(assert
 (= (<= (+ 1_y 3) 5_y) ud_2_6))
(assert
 (= (<= (+ 5_x 3) 1_x) lr_6_2))
(assert
 (= (<= (+ 5_y 9) 1_y) ud_6_2))
(assert
 (or lr_2_6 lr_6_2 ud_2_6 ud_6_2))
(assert
 (let (($x747 (< makespan 12)))
 (=> $x747 (= ud_2_6 false))))
(assert
 (let (($x747 (< makespan 12)))
 (=> $x747 (= ud_6_2 false))))
(assert
 (= (<= (+ 1_x 7) 6_x) lr_2_7))
(assert
 (= (<= (+ 1_y 3) 6_y) ud_2_7))
(assert
 (= (<= (+ 6_x 3) 1_x) lr_7_2))
(assert
 (= (<= (+ 6_y 8) 1_y) ud_7_2))
(assert
 (or lr_2_7 lr_7_2 ud_2_7 ud_7_2))
(assert
 (let (($x784 (< makespan 11)))
 (=> $x784 (= ud_2_7 false))))
(assert
 (let (($x784 (< makespan 11)))
 (=> $x784 (= ud_7_2 false))))
(assert
 (= (<= (+ 1_x 7) 7_x) lr_2_8))
(assert
 (= (<= (+ 1_y 3) 7_y) ud_2_8))
(assert
 (= (<= (+ 7_x 3) 1_x) lr_8_2))
(assert
 (= (<= (+ 7_y 7) 1_y) ud_8_2))
(assert
 (or lr_2_8 lr_8_2 ud_2_8 ud_8_2))
(assert
 (let (($x820 (< makespan 10)))
 (=> $x820 (= ud_2_8 false))))
(assert
 (let (($x820 (< makespan 10)))
 (=> $x820 (= ud_8_2 false))))
(assert
 (= (<= (+ 1_x 7) 8_x) lr_2_9))
(assert
 (= (<= (+ 1_y 3) 8_y) ud_2_9))
(assert
 (= (<= (+ 8_x 3) 1_x) lr_9_2))
(assert
 (= (<= (+ 8_y 6) 1_y) ud_9_2))
(assert
 (or lr_2_9 lr_9_2 ud_2_9 ud_9_2))
(assert
 (let (($x510 (< makespan 9)))
 (=> $x510 (= ud_2_9 false))))
(assert
 (let (($x510 (< makespan 9)))
 (=> $x510 (= ud_9_2 false))))
(assert
 (= (<= (+ 1_x 7) 9_x) lr_2_10))
(assert
 (= (<= (+ 1_y 3) 9_y) ud_2_10))
(assert
 (= (<= (+ 9_x 3) 1_x) lr_10_2))
(assert
 (= (<= (+ 9_y 5) 1_y) ud_10_2))
(assert
 (or lr_2_10 lr_10_2 ud_2_10 ud_10_2))
(assert
 (let (($x1082 (< makespan 8)))
 (=> $x1082 (= ud_2_10 false))))
(assert
 (let (($x1082 (< makespan 8)))
 (=> $x1082 (= ud_10_2 false))))
(assert
 (= (<= (+ 1_x 7) 10_x) lr_2_11))
(assert
 (= (<= (+ 1_y 3) 10_y) ud_2_11))
(assert
 (= (<= (+ 10_x 3) 1_x) lr_11_2))
(assert
 (= (<= (+ 10_y 4) 1_y) ud_11_2))
(assert
 (or lr_2_11 lr_11_2 ud_2_11 ud_11_2))
(assert
 (let (($x1115 (< makespan 7)))
 (=> $x1115 (= ud_2_11 false))))
(assert
 (let (($x1115 (< makespan 7)))
 (=> $x1115 (= ud_11_2 false))))
(assert
 (= (<= (+ 1_x 7) 11_x) lr_2_12))
(assert
 (= (<= (+ 1_y 3) 11_y) ud_2_12))
(assert
 (= (<= (+ 11_x 3) 1_x) lr_12_2))
(assert
 (= (<= (+ 11_y 3) 1_y) ud_12_2))
(assert
 (or lr_2_12 lr_12_2 ud_2_12 ud_12_2))
(assert
 (let (($x941 (< makespan 6)))
 (=> $x941 (= ud_2_12 false))))
(assert
 (let (($x941 (< makespan 6)))
 (=> $x941 (= ud_12_2 false))))
(assert
 (= (<= (+ 2_x 4) 3_x) lr_3_4))
(assert
 (= (<= (+ 2_y 14) 3_y) ud_3_4))
(assert
 (= (<= (+ 3_x 4) 2_x) lr_4_3))
(assert
 (= (<= (+ 3_y 8) 2_y) ud_4_3))
(assert
 (or lr_3_4 lr_4_3 ud_3_4 ud_4_3))
(assert
 (let (($x1176 (< makespan 22)))
 (=> $x1176 (= ud_3_4 false))))
(assert
 (let (($x148 (= ud_4_3 false)))
 (let (($x1176 (< makespan 22)))
 (=> $x1176 $x148))))
(assert
 (= (<= (+ 2_x 4) 4_x) lr_3_5))
(assert
 (= (<= (+ 2_y 14) 4_y) ud_3_5))
(assert
 (= (<= (+ 4_x 4) 2_x) lr_5_3))
(assert
 (= (<= (+ 4_y 3) 2_y) ud_5_3))
(assert
 (or lr_3_5 lr_5_3 ud_3_5 ud_5_3))
(assert
 (let (($x883 (< makespan 17)))
 (=> $x883 (= ud_3_5 false))))
(assert
 (let (($x883 (< makespan 17)))
 (=> $x883 (= ud_5_3 false))))
(assert
 (= (<= (+ 2_x 4) 5_x) lr_3_6))
(assert
 (= (<= (+ 2_y 14) 5_y) ud_3_6))
(assert
 (= (<= (+ 5_x 3) 2_x) lr_6_3))
(assert
 (= (<= (+ 5_y 9) 2_y) ud_6_3))
(assert
 (or lr_3_6 lr_6_3 ud_3_6 ud_6_3))
(assert
 (let (($x1234 (< makespan 23)))
 (=> $x1234 (= ud_3_6 false))))
(assert
 (let (($x91 (= ud_6_3 false)))
 (let (($x1234 (< makespan 23)))
 (=> $x1234 $x91))))
(assert
 (= (<= (+ 2_x 4) 6_x) lr_3_7))
(assert
 (= (<= (+ 2_y 14) 6_y) ud_3_7))
(assert
 (= (<= (+ 6_x 3) 2_x) lr_7_3))
(assert
 (= (<= (+ 6_y 8) 2_y) ud_7_3))
(assert
 (or lr_3_7 lr_7_3 ud_3_7 ud_7_3))
(assert
 (let (($x1176 (< makespan 22)))
 (=> $x1176 (= ud_3_7 false))))
(assert
 (let (($x39 (= ud_7_3 false)))
 (let (($x1176 (< makespan 22)))
 (=> $x1176 $x39))))
(assert
 (= (<= (+ 2_x 4) 7_x) lr_3_8))
(assert
 (= (<= (+ 2_y 14) 7_y) ud_3_8))
(assert
 (= (<= (+ 7_x 3) 2_x) lr_8_3))
(assert
 (= (<= (+ 7_y 7) 2_y) ud_8_3))
(assert
 (or lr_3_8 lr_8_3 ud_3_8 ud_8_3))
(assert
 (let (($x1290 (< makespan 21)))
 (=> $x1290 (= ud_3_8 false))))
(assert
 (let (($x433 (= ud_8_3 false)))
 (let (($x1290 (< makespan 21)))
 (=> $x1290 $x433))))
(assert
 (= (<= (+ 2_x 4) 8_x) lr_3_9))
(assert
 (= (<= (+ 2_y 14) 8_y) ud_3_9))
(assert
 (= (<= (+ 8_x 3) 2_x) lr_9_3))
(assert
 (= (<= (+ 8_y 6) 2_y) ud_9_3))
(assert
 (or lr_3_9 lr_9_3 ud_3_9 ud_9_3))
(assert
 (let (($x547 (< makespan 20)))
 (=> $x547 (= ud_3_9 false))))
(assert
 (let (($x446 (= ud_9_3 false)))
 (let (($x547 (< makespan 20)))
 (=> $x547 $x446))))
(assert
 (= (<= (+ 2_x 4) 9_x) lr_3_10))
(assert
 (= (<= (+ 2_y 14) 9_y) ud_3_10))
(assert
 (= (<= (+ 9_x 3) 2_x) lr_10_3))
(assert
 (= (<= (+ 9_y 5) 2_y) ud_10_3))
(assert
 (or lr_3_10 lr_10_3 ud_3_10 ud_10_3))
(assert
 (let (($x1346 (< makespan 19)))
 (=> $x1346 (= ud_3_10 false))))
(assert
 (let (($x459 (= ud_10_3 false)))
 (let (($x1346 (< makespan 19)))
 (=> $x1346 $x459))))
(assert
 (= (<= (+ 2_x 4) 10_x) lr_3_11))
(assert
 (= (<= (+ 2_y 14) 10_y) ud_3_11))
(assert
 (= (<= (+ 10_x 3) 2_x) lr_11_3))
(assert
 (= (<= (+ 10_y 4) 2_y) ud_11_3))
(assert
 (or lr_3_11 lr_11_3 ud_3_11 ud_11_3))
(assert
 (let (($x1376 (< makespan 18)))
 (=> $x1376 (= ud_3_11 false))))
(assert
 (let (($x1376 (< makespan 18)))
 (=> $x1376 (= ud_11_3 false))))
(assert
 (= (<= (+ 2_x 4) 11_x) lr_3_12))
(assert
 (= (<= (+ 2_y 14) 11_y) ud_3_12))
(assert
 (= (<= (+ 11_x 3) 2_x) lr_12_3))
(assert
 (= (<= (+ 11_y 3) 2_y) ud_12_3))
(assert
 (or lr_3_12 lr_12_3 ud_3_12 ud_12_3))
(assert
 (let (($x883 (< makespan 17)))
 (=> $x883 (= ud_3_12 false))))
(assert
 (let (($x883 (< makespan 17)))
 (=> $x883 (= ud_12_3 false))))
(assert
 (= (<= (+ 3_x 4) 4_x) lr_4_5))
(assert
 (= (<= (+ 3_y 8) 4_y) ud_4_5))
(assert
 (= (<= (+ 4_x 4) 3_x) lr_5_4))
(assert
 (= (<= (+ 4_y 3) 3_y) ud_5_4))
(assert
 (or lr_4_5 lr_5_4 ud_4_5 ud_5_4))
(assert
 (let (($x784 (< makespan 11)))
 (=> $x784 (= ud_4_5 false))))
(assert
 (let (($x784 (< makespan 11)))
 (=> $x784 (= ud_5_4 false))))
(assert
 (= (<= (+ 3_x 4) 5_x) lr_4_6))
(assert
 (= (<= (+ 3_y 8) 5_y) ud_4_6))
(assert
 (= (<= (+ 5_x 3) 3_x) lr_6_4))
(assert
 (= (<= (+ 5_y 9) 3_y) ud_6_4))
(assert
 (or lr_4_6 lr_6_4 ud_4_6 ud_6_4))
(assert
 (let (($x883 (< makespan 17)))
 (=> $x883 (= ud_4_6 false))))
(assert
 (let (($x883 (< makespan 17)))
 (=> $x883 (= ud_6_4 false))))
(assert
 (= (<= (+ 3_x 4) 6_x) lr_4_7))
(assert
 (= (<= (+ 3_y 8) 6_y) ud_4_7))
(assert
 (= (<= (+ 6_x 3) 3_x) lr_7_4))
(assert
 (= (<= (+ 6_y 8) 3_y) ud_7_4))
(assert
 (or lr_4_7 lr_7_4 ud_4_7 ud_7_4))
(assert
 (let (($x1490 (< makespan 16)))
 (=> $x1490 (= ud_4_7 false))))
(assert
 (let (($x1490 (< makespan 16)))
 (=> $x1490 (= ud_7_4 false))))
(assert
 (= (<= (+ 3_x 4) 7_x) lr_4_8))
(assert
 (= (<= (+ 3_y 8) 7_y) ud_4_8))
(assert
 (= (<= (+ 7_x 3) 3_x) lr_8_4))
(assert
 (= (<= (+ 7_y 7) 3_y) ud_8_4))
(assert
 (or lr_4_8 lr_8_4 ud_4_8 ud_8_4))
(assert
 (let (($x646 (< makespan 15)))
 (=> $x646 (= ud_4_8 false))))
(assert
 (let (($x646 (< makespan 15)))
 (=> $x646 (= ud_8_4 false))))
(assert
 (= (<= (+ 3_x 4) 8_x) lr_4_9))
(assert
 (= (<= (+ 3_y 8) 8_y) ud_4_9))
(assert
 (= (<= (+ 8_x 3) 3_x) lr_9_4))
(assert
 (= (<= (+ 8_y 6) 3_y) ud_9_4))
(assert
 (or lr_4_9 lr_9_4 ud_4_9 ud_9_4))
(assert
 (let (($x581 (< makespan 14)))
 (=> $x581 (= ud_4_9 false))))
(assert
 (let (($x581 (< makespan 14)))
 (=> $x581 (= ud_9_4 false))))
(assert
 (= (<= (+ 3_x 4) 9_x) lr_4_10))
(assert
 (= (<= (+ 3_y 8) 9_y) ud_4_10))
(assert
 (= (<= (+ 9_x 3) 3_x) lr_10_4))
(assert
 (= (<= (+ 9_y 5) 3_y) ud_10_4))
(assert
 (or lr_4_10 lr_10_4 ud_4_10 ud_10_4))
(assert
 (let (($x711 (< makespan 13)))
 (=> $x711 (= ud_4_10 false))))
(assert
 (let (($x711 (< makespan 13)))
 (=> $x711 (= ud_10_4 false))))
(assert
 (= (<= (+ 3_x 4) 10_x) lr_4_11))
(assert
 (= (<= (+ 3_y 8) 10_y) ud_4_11))
(assert
 (= (<= (+ 10_x 3) 3_x) lr_11_4))
(assert
 (= (<= (+ 10_y 4) 3_y) ud_11_4))
(assert
 (or lr_4_11 lr_11_4 ud_4_11 ud_11_4))
(assert
 (let (($x747 (< makespan 12)))
 (=> $x747 (= ud_4_11 false))))
(assert
 (let (($x747 (< makespan 12)))
 (=> $x747 (= ud_11_4 false))))
(assert
 (= (<= (+ 3_x 4) 11_x) lr_4_12))
(assert
 (= (<= (+ 3_y 8) 11_y) ud_4_12))
(assert
 (= (<= (+ 11_x 3) 3_x) lr_12_4))
(assert
 (= (<= (+ 11_y 3) 3_y) ud_12_4))
(assert
 (or lr_4_12 lr_12_4 ud_4_12 ud_12_4))
(assert
 (let (($x784 (< makespan 11)))
 (=> $x784 (= ud_4_12 false))))
(assert
 (let (($x784 (< makespan 11)))
 (=> $x784 (= ud_12_4 false))))
(assert
 (= (<= (+ 4_x 4) 5_x) lr_5_6))
(assert
 (= (<= (+ 4_y 3) 5_y) ud_5_6))
(assert
 (= (<= (+ 5_x 3) 4_x) lr_6_5))
(assert
 (= (<= (+ 5_y 9) 4_y) ud_6_5))
(assert
 (or lr_5_6 lr_6_5 ud_5_6 ud_6_5))
(assert
 (let (($x747 (< makespan 12)))
 (=> $x747 (= ud_5_6 false))))
(assert
 (let (($x747 (< makespan 12)))
 (=> $x747 (= ud_6_5 false))))
(assert
 (= (<= (+ 4_x 4) 6_x) lr_5_7))
(assert
 (= (<= (+ 4_y 3) 6_y) ud_5_7))
(assert
 (= (<= (+ 6_x 3) 4_x) lr_7_5))
(assert
 (= (<= (+ 6_y 8) 4_y) ud_7_5))
(assert
 (or lr_5_7 lr_7_5 ud_5_7 ud_7_5))
(assert
 (let (($x784 (< makespan 11)))
 (=> $x784 (= ud_5_7 false))))
(assert
 (let (($x784 (< makespan 11)))
 (=> $x784 (= ud_7_5 false))))
(assert
 (= (<= (+ 4_x 4) 7_x) lr_5_8))
(assert
 (= (<= (+ 4_y 3) 7_y) ud_5_8))
(assert
 (= (<= (+ 7_x 3) 4_x) lr_8_5))
(assert
 (= (<= (+ 7_y 7) 4_y) ud_8_5))
(assert
 (or lr_5_8 lr_8_5 ud_5_8 ud_8_5))
(assert
 (let (($x820 (< makespan 10)))
 (=> $x820 (= ud_5_8 false))))
(assert
 (let (($x820 (< makespan 10)))
 (=> $x820 (= ud_8_5 false))))
(assert
 (= (<= (+ 4_x 4) 8_x) lr_5_9))
(assert
 (= (<= (+ 4_y 3) 8_y) ud_5_9))
(assert
 (= (<= (+ 8_x 3) 4_x) lr_9_5))
(assert
 (= (<= (+ 8_y 6) 4_y) ud_9_5))
(assert
 (or lr_5_9 lr_9_5 ud_5_9 ud_9_5))
(assert
 (let (($x510 (< makespan 9)))
 (=> $x510 (= ud_5_9 false))))
(assert
 (let (($x510 (< makespan 9)))
 (=> $x510 (= ud_9_5 false))))
(assert
 (= (<= (+ 4_x 4) 9_x) lr_5_10))
(assert
 (= (<= (+ 4_y 3) 9_y) ud_5_10))
(assert
 (= (<= (+ 9_x 3) 4_x) lr_10_5))
(assert
 (= (<= (+ 9_y 5) 4_y) ud_10_5))
(assert
 (or lr_5_10 lr_10_5 ud_5_10 ud_10_5))
(assert
 (let (($x1082 (< makespan 8)))
 (=> $x1082 (= ud_5_10 false))))
(assert
 (let (($x1082 (< makespan 8)))
 (=> $x1082 (= ud_10_5 false))))
(assert
 (= (<= (+ 4_x 4) 10_x) lr_5_11))
(assert
 (= (<= (+ 4_y 3) 10_y) ud_5_11))
(assert
 (= (<= (+ 10_x 3) 4_x) lr_11_5))
(assert
 (= (<= (+ 10_y 4) 4_y) ud_11_5))
(assert
 (or lr_5_11 lr_11_5 ud_5_11 ud_11_5))
(assert
 (let (($x1115 (< makespan 7)))
 (=> $x1115 (= ud_5_11 false))))
(assert
 (let (($x1115 (< makespan 7)))
 (=> $x1115 (= ud_11_5 false))))
(assert
 (= (<= (+ 4_x 4) 11_x) lr_5_12))
(assert
 (= (<= (+ 4_y 3) 11_y) ud_5_12))
(assert
 (= (<= (+ 11_x 3) 4_x) lr_12_5))
(assert
 (= (<= (+ 11_y 3) 4_y) ud_12_5))
(assert
 (or lr_5_12 lr_12_5 ud_5_12 ud_12_5))
(assert
 (let (($x941 (< makespan 6)))
 (=> $x941 (= ud_5_12 false))))
(assert
 (let (($x941 (< makespan 6)))
 (=> $x941 (= ud_12_5 false))))
(assert
 (= (<= (+ 5_x 3) 6_x) lr_6_7))
(assert
 (= (<= (+ 5_y 9) 6_y) ud_6_7))
(assert
 (= (<= (+ 6_x 3) 5_x) lr_7_6))
(assert
 (= (<= (+ 6_y 8) 5_y) ud_7_6))
(assert
 (or lr_6_7 lr_7_6 ud_6_7 ud_7_6))
(assert
 (let (($x883 (< makespan 17)))
 (=> $x883 (= ud_6_7 false))))
(assert
 (let (($x883 (< makespan 17)))
 (=> $x883 (= ud_7_6 false))))
(assert
 (= (<= (+ 5_x 3) 7_x) lr_6_8))
(assert
 (= (<= (+ 5_y 9) 7_y) ud_6_8))
(assert
 (= (<= (+ 7_x 3) 5_x) lr_8_6))
(assert
 (= (<= (+ 7_y 7) 5_y) ud_8_6))
(assert
 (or lr_6_8 lr_8_6 ud_6_8 ud_8_6))
(assert
 (let (($x1490 (< makespan 16)))
 (=> $x1490 (= ud_6_8 false))))
(assert
 (let (($x1490 (< makespan 16)))
 (=> $x1490 (= ud_8_6 false))))
(assert
 (= (<= (+ 5_x 3) 8_x) lr_6_9))
(assert
 (= (<= (+ 5_y 9) 8_y) ud_6_9))
(assert
 (= (<= (+ 8_x 3) 5_x) lr_9_6))
(assert
 (= (<= (+ 8_y 6) 5_y) ud_9_6))
(assert
 (or lr_6_9 lr_9_6 ud_6_9 ud_9_6))
(assert
 (let (($x646 (< makespan 15)))
 (=> $x646 (= ud_6_9 false))))
(assert
 (let (($x646 (< makespan 15)))
 (=> $x646 (= ud_9_6 false))))
(assert
 (= (<= (+ 5_x 3) 9_x) lr_6_10))
(assert
 (= (<= (+ 5_y 9) 9_y) ud_6_10))
(assert
 (= (<= (+ 9_x 3) 5_x) lr_10_6))
(assert
 (= (<= (+ 9_y 5) 5_y) ud_10_6))
(assert
 (or lr_6_10 lr_10_6 ud_6_10 ud_10_6))
(assert
 (let (($x581 (< makespan 14)))
 (=> $x581 (= ud_6_10 false))))
(assert
 (let (($x581 (< makespan 14)))
 (=> $x581 (= ud_10_6 false))))
(assert
 (= (<= (+ 5_x 3) 10_x) lr_6_11))
(assert
 (= (<= (+ 5_y 9) 10_y) ud_6_11))
(assert
 (= (<= (+ 10_x 3) 5_x) lr_11_6))
(assert
 (= (<= (+ 10_y 4) 5_y) ud_11_6))
(assert
 (or lr_6_11 lr_11_6 ud_6_11 ud_11_6))
(assert
 (let (($x711 (< makespan 13)))
 (=> $x711 (= ud_6_11 false))))
(assert
 (let (($x711 (< makespan 13)))
 (=> $x711 (= ud_11_6 false))))
(assert
 (= (<= (+ 5_x 3) 11_x) lr_6_12))
(assert
 (= (<= (+ 5_y 9) 11_y) ud_6_12))
(assert
 (= (<= (+ 11_x 3) 5_x) lr_12_6))
(assert
 (= (<= (+ 11_y 3) 5_y) ud_12_6))
(assert
 (or lr_6_12 lr_12_6 ud_6_12 ud_12_6))
(assert
 (let (($x747 (< makespan 12)))
 (=> $x747 (= ud_6_12 false))))
(assert
 (let (($x747 (< makespan 12)))
 (=> $x747 (= ud_12_6 false))))
(assert
 (= (<= (+ 6_x 3) 7_x) lr_7_8))
(assert
 (= (<= (+ 6_y 8) 7_y) ud_7_8))
(assert
 (= (<= (+ 7_x 3) 6_x) lr_8_7))
(assert
 (= (<= (+ 7_y 7) 6_y) ud_8_7))
(assert
 (or lr_7_8 lr_8_7 ud_7_8 ud_8_7))
(assert
 (let (($x646 (< makespan 15)))
 (=> $x646 (= ud_7_8 false))))
(assert
 (let (($x646 (< makespan 15)))
 (=> $x646 (= ud_8_7 false))))
(assert
 (= (<= (+ 6_x 3) 8_x) lr_7_9))
(assert
 (= (<= (+ 6_y 8) 8_y) ud_7_9))
(assert
 (= (<= (+ 8_x 3) 6_x) lr_9_7))
(assert
 (= (<= (+ 8_y 6) 6_y) ud_9_7))
(assert
 (or lr_7_9 lr_9_7 ud_7_9 ud_9_7))
(assert
 (let (($x581 (< makespan 14)))
 (=> $x581 (= ud_7_9 false))))
(assert
 (let (($x581 (< makespan 14)))
 (=> $x581 (= ud_9_7 false))))
(assert
 (= (<= (+ 6_x 3) 9_x) lr_7_10))
(assert
 (= (<= (+ 6_y 8) 9_y) ud_7_10))
(assert
 (= (<= (+ 9_x 3) 6_x) lr_10_7))
(assert
 (= (<= (+ 9_y 5) 6_y) ud_10_7))
(assert
 (or lr_7_10 lr_10_7 ud_7_10 ud_10_7))
(assert
 (let (($x711 (< makespan 13)))
 (=> $x711 (= ud_7_10 false))))
(assert
 (let (($x711 (< makespan 13)))
 (=> $x711 (= ud_10_7 false))))
(assert
 (= (<= (+ 6_x 3) 10_x) lr_7_11))
(assert
 (= (<= (+ 6_y 8) 10_y) ud_7_11))
(assert
 (= (<= (+ 10_x 3) 6_x) lr_11_7))
(assert
 (= (<= (+ 10_y 4) 6_y) ud_11_7))
(assert
 (or lr_7_11 lr_11_7 ud_7_11 ud_11_7))
(assert
 (let (($x747 (< makespan 12)))
 (=> $x747 (= ud_7_11 false))))
(assert
 (let (($x747 (< makespan 12)))
 (=> $x747 (= ud_11_7 false))))
(assert
 (= (<= (+ 6_x 3) 11_x) lr_7_12))
(assert
 (= (<= (+ 6_y 8) 11_y) ud_7_12))
(assert
 (= (<= (+ 11_x 3) 6_x) lr_12_7))
(assert
 (= (<= (+ 11_y 3) 6_y) ud_12_7))
(assert
 (or lr_7_12 lr_12_7 ud_7_12 ud_12_7))
(assert
 (let (($x784 (< makespan 11)))
 (=> $x784 (= ud_7_12 false))))
(assert
 (let (($x784 (< makespan 11)))
 (=> $x784 (= ud_12_7 false))))
(assert
 (= (<= (+ 7_x 3) 8_x) lr_8_9))
(assert
 (= (<= (+ 7_y 7) 8_y) ud_8_9))
(assert
 (= (<= (+ 8_x 3) 7_x) lr_9_8))
(assert
 (= (<= (+ 8_y 6) 7_y) ud_9_8))
(assert
 (or lr_8_9 lr_9_8 ud_8_9 ud_9_8))
(assert
 (let (($x711 (< makespan 13)))
 (=> $x711 (= ud_8_9 false))))
(assert
 (let (($x711 (< makespan 13)))
 (=> $x711 (= ud_9_8 false))))
(assert
 (= (<= (+ 7_x 3) 9_x) lr_8_10))
(assert
 (= (<= (+ 7_y 7) 9_y) ud_8_10))
(assert
 (= (<= (+ 9_x 3) 7_x) lr_10_8))
(assert
 (= (<= (+ 9_y 5) 7_y) ud_10_8))
(assert
 (or lr_8_10 lr_10_8 ud_8_10 ud_10_8))
(assert
 (let (($x747 (< makespan 12)))
 (=> $x747 (= ud_8_10 false))))
(assert
 (let (($x747 (< makespan 12)))
 (=> $x747 (= ud_10_8 false))))
(assert
 (= (<= (+ 7_x 3) 10_x) lr_8_11))
(assert
 (= (<= (+ 7_y 7) 10_y) ud_8_11))
(assert
 (= (<= (+ 10_x 3) 7_x) lr_11_8))
(assert
 (= (<= (+ 10_y 4) 7_y) ud_11_8))
(assert
 (or lr_8_11 lr_11_8 ud_8_11 ud_11_8))
(assert
 (let (($x784 (< makespan 11)))
 (=> $x784 (= ud_8_11 false))))
(assert
 (let (($x784 (< makespan 11)))
 (=> $x784 (= ud_11_8 false))))
(assert
 (= (<= (+ 7_x 3) 11_x) lr_8_12))
(assert
 (= (<= (+ 7_y 7) 11_y) ud_8_12))
(assert
 (= (<= (+ 11_x 3) 7_x) lr_12_8))
(assert
 (= (<= (+ 11_y 3) 7_y) ud_12_8))
(assert
 (or lr_8_12 lr_12_8 ud_8_12 ud_12_8))
(assert
 (let (($x820 (< makespan 10)))
 (=> $x820 (= ud_8_12 false))))
(assert
 (let (($x820 (< makespan 10)))
 (=> $x820 (= ud_12_8 false))))
(assert
 (= (<= (+ 8_x 3) 9_x) lr_9_10))
(assert
 (= (<= (+ 8_y 6) 9_y) ud_9_10))
(assert
 (= (<= (+ 9_x 3) 8_x) lr_10_9))
(assert
 (= (<= (+ 9_y 5) 8_y) ud_10_9))
(assert
 (or lr_9_10 lr_10_9 ud_9_10 ud_10_9))
(assert
 (let (($x784 (< makespan 11)))
 (=> $x784 (= ud_9_10 false))))
(assert
 (let (($x784 (< makespan 11)))
 (=> $x784 (= ud_10_9 false))))
(assert
 (= (<= (+ 8_x 3) 10_x) lr_9_11))
(assert
 (= (<= (+ 8_y 6) 10_y) ud_9_11))
(assert
 (= (<= (+ 10_x 3) 8_x) lr_11_9))
(assert
 (= (<= (+ 10_y 4) 8_y) ud_11_9))
(assert
 (or lr_9_11 lr_11_9 ud_9_11 ud_11_9))
(assert
 (let (($x820 (< makespan 10)))
 (=> $x820 (= ud_9_11 false))))
(assert
 (let (($x820 (< makespan 10)))
 (=> $x820 (= ud_11_9 false))))
(assert
 (= (<= (+ 8_x 3) 11_x) lr_9_12))
(assert
 (= (<= (+ 8_y 6) 11_y) ud_9_12))
(assert
 (= (<= (+ 11_x 3) 8_x) lr_12_9))
(assert
 (= (<= (+ 11_y 3) 8_y) ud_12_9))
(assert
 (or lr_9_12 lr_12_9 ud_9_12 ud_12_9))
(assert
 (let (($x510 (< makespan 9)))
 (=> $x510 (= ud_9_12 false))))
(assert
 (let (($x510 (< makespan 9)))
 (=> $x510 (= ud_12_9 false))))
(assert
 (= (<= (+ 9_x 3) 10_x) lr_10_11))
(assert
 (= (<= (+ 9_y 5) 10_y) ud_10_11))
(assert
 (= (<= (+ 10_x 3) 9_x) lr_11_10))
(assert
 (= (<= (+ 10_y 4) 9_y) ud_11_10))
(assert
 (or lr_10_11 lr_11_10 ud_10_11 ud_11_10))
(assert
 (let (($x510 (< makespan 9)))
 (=> $x510 (= ud_10_11 false))))
(assert
 (let (($x510 (< makespan 9)))
 (=> $x510 (= ud_11_10 false))))
(assert
 (= (<= (+ 9_x 3) 11_x) lr_10_12))
(assert
 (= (<= (+ 9_y 5) 11_y) ud_10_12))
(assert
 (= (<= (+ 11_x 3) 9_x) lr_12_10))
(assert
 (= (<= (+ 11_y 3) 9_y) ud_12_10))
(assert
 (or lr_10_12 lr_12_10 ud_10_12 ud_12_10))
(assert
 (let (($x1082 (< makespan 8)))
 (=> $x1082 (= ud_10_12 false))))
(assert
 (let (($x1082 (< makespan 8)))
 (=> $x1082 (= ud_12_10 false))))
(assert
 (= (<= (+ 10_x 3) 11_x) lr_11_12))
(assert
 (= (<= (+ 10_y 4) 11_y) ud_11_12))
(assert
 (= (<= (+ 11_x 3) 10_x) lr_12_11))
(assert
 (= (<= (+ 11_y 3) 10_y) ud_12_11))
(assert
 (or lr_11_12 lr_12_11 ud_11_12 ud_12_11))
(assert
 (let (($x1115 (< makespan 7)))
 (=> $x1115 (= ud_11_12 false))))
(assert
 (let (($x1115 (< makespan 7)))
 (=> $x1115 (= ud_12_11 false))))
(check-sat)
